40 396 5
0 2 1
0 3 1
0 5 1
0 6 1
0 9 1
0 10 1
0 11 1
0 17 1
0 19 1
0 25 1
0 30 1
0 32 1
0 33 1
0 37 1
0 39 1
1 5 1
1 6 1
1 8 1
1 9 1
1 12 1
1 18 1
1 19 1
1 22 1
1 24 1
1 27 1
1 28 1
1 30 1
1 31 1
1 32 1
1 33 1
1 35 1
1 39 1
2 3 1
2 4 1
2 5 1
2 6 1
2 10 1
2 12 1
2 15 1
2 16 1
2 17 1
2 19 1
2 20 1
2 22 1
2 23 1
2 24 1
2 26 1
2 27 1
2 31 1
2 32 1
2 33 1
2 34 1
2 36 1
2 37 1
2 38 1
2 39 1
3 4 1
3 6 1
3 8 1
3 9 1
3 10 1
3 12 1
3 13 1
3 15 1
3 16 1
3 18 1
3 24 1
3 25 1
3 28 1
3 30 1
3 33 1
3 34 1
3 35 1
3 37 1
3 39 1
4 6 1
4 7 1
4 11 1
4 12 1
4 13 1
4 15 1
4 17 1
4 18 1
4 20 1
4 24 1
4 27 1
4 39 1
5 10 1
5 12 1
5 13 1
5 15 1
5 16 1
5 17 1
5 18 1
5 19 1
5 22 1
5 23 1
5 27 1
5 28 1
5 29 1
5 32 1
5 35 1
5 37 1
6 7 1
6 9 1
6 10 1
6 15 1
6 16 1
6 17 1
6 18 1
6 20 1
6 24 1
6 26 1
6 30 1
6 32 1
6 33 1
6 35 1
6 37 1
6 38 1
7 9 1
7 13 1
7 15 1
7 16 1
7 17 1
7 19 1
7 20 1
7 21 1
7 23 1
7 25 1
7 26 1
7 27 1
7 29 1
7 30 1
7 31 1
7 33 1
7 36 1
7 38 1
7 39 1
8 9 1
8 10 1
8 12 1
8 15 1
8 17 1
8 18 1
8 20 1
8 21 1
8 23 1
8 24 1
8 28 1
8 31 1
8 32 1
8 33 1
8 36 1
8 39 1
9 10 1
9 14 1
9 15 1
9 16 1
9 19 1
9 20 1
9 23 1
9 27 1
9 28 1
9 30 1
9 32 1
9 33 1
9 35 1
9 36 1
9 39 1
10 11 1
10 12 1
10 13 1
10 14 1
10 16 1
10 17 1
10 18 1
10 22 1
10 26 1
10 27 1
10 30 1
10 32 1
10 35 1
10 39 1
11 12 1
11 17 1
11 21 1
11 23 1
11 24 1
11 25 1
11 28 1
11 29 1
11 31 1
11 34 1
11 37 1
11 39 1
12 13 1
12 14 1
12 15 1
12 20 1
12 21 1
12 24 1
12 25 1
12 28 1
12 32 1
12 33 1
12 34 1
12 35 1
12 36 1
12 37 1
12 38 1
13 14 1
13 15 1
13 16 1
13 20 1
13 22 1
13 24 1
13 25 1
13 31 1
13 34 1
13 35 1
13 37 1
14 16 1
14 19 1
14 20 1
14 21 1
14 22 1
14 25 1
14 26 1
14 27 1
14 28 1
14 29 1
14 30 1
14 32 1
14 34 1
14 38 1
15 17 1
15 18 1
15 19 1
15 24 1
15 25 1
15 27 1
15 28 1
15 29 1
15 30 1
15 32 1
15 36 1
15 37 1
15 38 1
16 19 1
16 20 1
16 21 1
16 22 1
16 26 1
16 27 1
16 29 1
16 33 1
16 34 1
16 36 1
16 37 1
16 39 1
17 18 1
17 20 1
17 21 1
17 23 1
17 24 1
17 25 1
17 28 1
17 31 1
17 32 1
17 33 1
17 36 1
17 37 1
17 38 1
18 21 1
18 23 1
18 27 1
18 28 1
18 30 1
18 31 1
18 33 1
18 34 1
18 35 1
18 38 1
19 21 1
19 23 1
19 28 1
19 29 1
19 30 1
19 34 1
19 36 1
19 37 1
19 38 1
19 39 1
20 21 1
20 22 1
20 29 1
20 31 1
20 36 1
20 37 1
20 38 1
21 22 1
21 23 1
21 25 1
21 28 1
21 30 1
21 31 1
21 35 1
21 36 1
21 37 1
22 23 1
22 24 1
22 25 1
22 27 1
22 30 1
22 32 1
22 33 1
22 36 1
22 39 1
23 24 1
23 27 1
23 28 1
23 29 1
23 30 1
23 33 1
23 34 1
23 36 1
23 38 1
23 39 1
24 26 1
24 27 1
24 28 1
24 29 1
24 33 1
24 34 1
24 35 1
24 39 1
25 29 1
25 32 1
25 33 1
25 34 1
25 35 1
25 37 1
25 38 1
25 39 1
26 27 1
26 28 1
26 32 1
26 34 1
26 35 1
26 39 1
27 28 1
27 29 1
27 32 1
27 33 1
27 35 1
27 36 1
27 37 1
27 38 1
27 39 1
28 30 1
28 31 1
28 32 1
28 33 1
28 34 1
28 35 1
28 36 1
28 37 1
28 39 1
29 37 1
29 39 1
30 33 1
30 36 1
30 37 1
30 39 1
31 33 1
31 35 1
31 36 1
31 37 1
31 38 1
31 39 1
32 33 1
32 34 1
32 35 1
32 37 1
32 39 1
33 35 1
33 36 1
33 38 1
34 38 1
34 39 1
35 36 1
35 37 1
35 38 1
35 39 1
37 39 1
38 39 1
12 19 23 32 38
